
Gurobi 8.1.1 (win64) logging started 11/26/19 22:03:39

Changed value of parameter LogFile to logs/miss/rlt/miss-05-30-0.log
   Prev: gurobi.log  Default: 
Changed value of parameter LogToConsole to 0
   Prev: 1  Min: 0  Max: 1  Default: 1
Changed value of parameter TimeLimit to 3600.0
   Prev: 1e+100  Min: 0.0  Max: 1e+100  Default: 1e+100
Optimize a model with 127463 rows, 42778 columns and 298571 nonzeros
Variable types: 0 continuous, 42778 integer (292 binary)
Coefficient statistics:
  Matrix range     [1e+00, 1e+00]
  Objective range  [1e+00, 1e+00]
  Bounds range     [1e+00, 1e+00]
  RHS range        [1e+00, 1e+00]
Found heuristic solution: objective 6.0000000
Presolve time: 1.60s
Presolved: 127463 rows, 42778 columns, 298571 nonzeros
Variable types: 0 continuous, 42778 integer (42778 binary)

Root simplex log...

Iteration    Objective       Primal Inf.    Dual Inf.      Time
    2090    1.3725535e+00   3.485686e+02   0.000000e+00      5s
    2733    1.3802083e+00   0.000000e+00   0.000000e+00      8s

Root relaxation: objective 1.380208e+00, 2733 iterations, 5.94 seconds

    Nodes    |    Current Node    |     Objective Bounds      |     Work
 Expl Unexpl |  Obj  Depth IntInf | Incumbent    BestBd   Gap | It/Node Time

     0     0    1.38021    0 1431    6.00000    1.38021  77.0%     -   11s
H    0     0                       5.0000000    1.38021  72.4%     -   12s
     0     0    1.65080    0  817    5.00000    1.65080  67.0%     -   25s
     0     0    1.66823    0  959    5.00000    1.66823  66.6%     -   61s
     0     0    1.69284    0  862    5.00000    1.69284  66.1%     -   63s
     0     0    1.71298    0  988    5.00000    1.71298  65.7%     -   67s
     0     0    1.71525    0  946    5.00000    1.71525  65.7%     -  106s
     0     0    1.72695    0  926    5.00000    1.72695  65.5%     -  109s
     0     0    1.72703    0  916    5.00000    1.72703  65.5%     -  111s
     0     0    1.73869    0  989    5.00000    1.73869  65.2%     -  115s
     0     0    1.74994    0 1032    5.00000    1.74994  65.0%     -  122s
     0     0    1.75105    0  974    5.00000    1.75105  65.0%     -  126s
     0     0    1.76345    0  994    5.00000    1.76345  64.7%     -  130s
     0     0    1.76449    0  943    5.00000    1.76449  64.7%     -  139s
     0     0    1.77881    0  953    5.00000    1.77881  64.4%     -  144s
     0     0    1.77912    0  954    5.00000    1.77912  64.4%     -  154s
     0     0    1.78984    0  935    5.00000    1.78984  64.2%     -  158s
     0     0    1.79051    0  921    5.00000    1.79051  64.2%     -  168s
     0     0    1.79812    0  952    5.00000    1.79812  64.0%     -  173s
     0     0    1.79825    0  911    5.00000    1.79825  64.0%     -  178s
     0     0    1.80258    0  994    5.00000    1.80258  63.9%     -  183s
     0     0    1.80317    0  973    5.00000    1.80317  63.9%     -  235s
     0     0    1.80927    0 1035    5.00000    1.80927  63.8%     -  241s
     0     0    1.80933    0 1012    5.00000    1.80933  63.8%     -  246s
     0     0    1.81323    0  979    5.00000    1.81323  63.7%     -  251s
     0     0    1.81396    0  968    5.00000    1.81396  63.7%     -  256s
     0     0    1.81794    0  948    5.00000    1.81794  63.6%     -  262s
     0     0    1.81830    0  953    5.00000    1.81830  63.6%     -  268s
     0     0    1.82263    0  989    5.00000    1.82263  63.5%     -  275s
     0     0    1.82276    0  952    5.00000    1.82276  63.5%     -  288s
     0     0    1.82627    0  985    5.00000    1.82627  63.5%     -  294s
     0     0    1.82638    0 1004    5.00000    1.82638  63.5%     -  299s
     0     0    1.82973    0 1072    5.00000    1.82973  63.4%     -  307s
     0     0    1.82977    0 1055    5.00000    1.82977  63.4%     -  326s
     0     0    1.83220    0 1024    5.00000    1.83220  63.4%     -  333s
     0     0    1.83236    0  987    5.00000    1.83236  63.4%     -  338s
     0     0    1.83359    0 1052    5.00000    1.83359  63.3%     -  344s
     0     0    1.83368    0 1080    5.00000    1.83368  63.3%     -  366s
     0     0    1.83551    0 1012    5.00000    1.83551  63.3%     -  375s
     0     0    1.83702    0 1039    5.00000    1.83702  63.3%     -  455s
     0     0    1.83712    0 1019    5.00000    1.83712  63.3%     -  463s
     0     0    1.83715    0 1020    5.00000    1.83715  63.3%     -  464s
     0     0    1.83828    0  997    5.00000    1.83828  63.2%     -  472s
     0     0    1.83832    0 1019    5.00000    1.83832  63.2%     -  479s
     0     0    1.83885    0 1013    5.00000    1.83885  63.2%     -  487s
     0     0    1.83886    0  997    5.00000    1.83886  63.2%     -  492s
     0     0    1.83998    0 1023    5.00000    1.83998  63.2%     -  501s
     0     0    1.84001    0 1045    5.00000    1.84001  63.2%     -  510s
     0     0    1.84078    0 1023    5.00000    1.84078  63.2%     -  517s
     0     0    1.84083    0 1038    5.00000    1.84083  63.2%     -  538s
     0     0    1.84154    0 1035    5.00000    1.84154  63.2%     -  546s
     0     0    1.84154    0 1035    5.00000    1.84154  63.2%     -  547s
     0     2    1.84154    0 1035    5.00000    1.84154  63.2%     - 2253s
     1     4    1.84162    1 1014    5.00000    1.84156  63.2%   718 2278s
     3     6    1.84216    2  958    5.00000    1.84166  63.2%  3497 2284s
     5     8    1.84265    3  898    5.00000    1.84166  63.2%  2449 2288s
     7     8    1.84346    4  858    5.00000    1.84166  63.2%  2057 2294s
     9    10    1.84448    5  796    5.00000    1.84166  63.2%  1841 2300s
    11    12    1.84750    6  844    5.00000    1.84166  63.2%  1750 2307s
    13    14    1.84852    7  866    5.00000    1.84166  63.2%  1622 2310s
    17    18    1.85382    9  842    5.00000    1.84166  63.2%  1477 2320s
    22    23    1.85776   11  787    5.00000    1.84166  63.2%  1327 2328s
    24    25    1.86122   12  803    5.00000    1.84166  63.2%  1305 2333s
    26    27    1.86656   13  769    5.00000    1.84166  63.2%  1276 2338s
    28    29    1.87141   14  763    5.00000    1.84166  63.2%  1245 2468s
    30    31    1.87797   15  700    5.00000    1.84166  63.2%  1216 2473s
    33    34    1.88416   16  768    5.00000    1.84166  63.2%  1165 2479s
    37    38    1.91044   18  804    5.00000    1.84166  63.2%  1121 2483s
    40    41    1.92376   19  809    5.00000    1.84166  63.2%  1089 2488s
    43    44    1.93364   20  812    5.00000    1.84166  63.2%  1051 2492s
    47    48    1.97596   22  800    5.00000    1.84166  63.2%  1011 2499s
    51    52    2.02125   24  777    5.00000    1.84166  63.2%   979 2505s
    58    59    2.07996   28  591    5.00000    1.84166  63.2%   905 2635s
    60    61    2.11018   29  647    5.00000    1.84166  63.2%   891 2644s
    67    68    2.24719   33  502    5.00000    1.84166  63.2%   850 2650s
    77    78    2.59524   40  435    5.00000    1.84166  63.2%   796 2655s
    89    90    3.18919   48  227    5.00000    1.84166  63.2%   738 2745s
    99    97    3.56471   57  156    5.00000    1.84222  63.2%   674 2770s
   110   106    2.66153    3 1435    5.00000    1.84222  63.2%   704 2776s
   115   111    2.66621    4 1463    5.00000    1.84222  63.2%   697 2783s
   121   116    2.67071    6 1396    5.00000    1.84222  63.2%   682 2980s
   129   124    2.67575    9 1390    5.00000    1.84222  63.2%   665 2988s
   139   134    2.68588   12 1350    5.00000    1.84222  63.2%   646 2995s
   156   151    2.69464   15 1334    5.00000    1.84222  63.2%   607 3002s
   175   167    2.70276   18 1310    5.00000    1.84222  63.2%   569 3026s
   192   186    2.71260   21 1275    5.00000    1.84222  63.2%   574 3035s
   199   190    2.72717   25 1218    5.00000    1.84222  63.2%   574 3041s
   206   197    2.73888   29 1183    5.00000    1.84222  63.2%   571 3048s
   213   204    2.75727   33 1140    5.00000    1.84222  63.2%   570 3057s
   221   212    2.77419   37 1090    5.00000    1.84222  63.2%   570 3265s
   223   214    2.77991   38 1081    5.00000    1.84222  63.2%   570 3275s
   233   224    2.80409   43 1032    5.00000    1.84222  63.2%   567 3284s
   245   236    2.84161   49  952    5.00000    1.84222  63.2%   560 3293s
   260   251    2.91796   58  916    5.00000    1.84222  63.2%   550 3306s
   287   274    3.26070   80  622    5.00000    1.84222  63.2%   526 3315s
   325   311    2.64991    3 1477    5.00000    1.84348  63.1%   510 3334s
   336   325    2.65362    4 1458    5.00000    1.84348  63.1%   505 3347s
   371   351    2.66144    7 1418    5.00000    1.84348  63.1%   481 3371s
   406   382    2.67389   12 1389    5.00000    1.84348  63.1%   470 3382s
   413   390    2.68906   18 1313    5.00000    1.84348  63.1%   474 3393s
   422   397    2.70869   23 1251    5.00000    1.84348  63.1%   477 3403s
   434   408    2.72949   30 1195    5.00000    1.84348  63.1%   478 3600s

Cutting planes:
  Gomory: 4
  Zero half: 139
  Mod-K: 2

Explored 447 nodes (268970 simplex iterations) in 3600.07 seconds
Thread count was 4 (of 4 available processors)

Solution count 2: 5 6 

Time limit reached
Best objective 5.000000000000e+00, best bound 2.000000000000e+00, gap 60.0000%
